unknown
(model
; cardinality of BoundSet is 3
(declare-sort BoundSet 0)
; rep: @uc_BoundSet_0
; rep: @uc_BoundSet_1
; rep: @uc_BoundSet_2
; cardinality of UnboundSet is 1
(declare-sort UnboundSet 0)
(declare-fun groundTerm_4 () UnboundSet)
(define-fun IsWearing ((BOUND_VARIABLE_489 BoundSet) (BOUND_VARIABLE_490 BoundSet)) Bool true)
(define-fun MakesFace ((BOUND_VARIABLE_493 BoundSet)) Bool true)
(define-fun IsInCrowd ((BOUND_VARIABLE_493 BoundSet)) Bool true)
(define-fun IsNear ((BOUND_VARIABLE_489 BoundSet) (BOUND_VARIABLE_490 BoundSet)) Bool false)
(define-fun IsStanding ((BOUND_VARIABLE_493 BoundSet)) Bool false)
)
sat
(model
; cardinality of BoundSet is 1
(declare-sort BoundSet 0)
; rep: @uc_BoundSet_0
; cardinality of UnboundSet is 1
(declare-sort UnboundSet 0)
(declare-fun groundTerm_11 () UnboundSet)
(define-fun IsWearing ((BOUND_VARIABLE_565 BoundSet) (BOUND_VARIABLE_566 BoundSet)) Bool true)
(define-fun MakesFace ((BOUND_VARIABLE_569 BoundSet)) Bool true)
(define-fun IsInCrowd ((BOUND_VARIABLE_569 BoundSet)) Bool true)
(define-fun IsNear ((BOUND_VARIABLE_565 BoundSet) (BOUND_VARIABLE_566 BoundSet)) Bool true)
(define-fun IsStanding ((BOUND_VARIABLE_569 BoundSet)) Bool false)
)
